;; Mutation-Based Equivalence Benchmark
;; Source:     AutomatArk / instance09590.smt2
;; Mutations:  literal_char_dec, literal_char_inc, literal_char_dec
;; Status:     sat
;;
;; Original regex vs mutated regex
;; Equivalence check: unsat ⟺ L(R1) = L(R2)

(set-info :smt-lib-version 2.6)
(set-info :category "mutation")
(set-info :status sat)
(set-logic QF_S)


;; R1: original
;; R2: mutated (literal_char_dec, literal_char_inc, literal_char_dec)
(assert
  (not
    (=
      (re.++ (str.to_re "/.setTimeOut") (re.* (re.union (str.to_re " ") (str.to_re "\u{9}") (str.to_re "\u{a}") (str.to_re "\u{c}") (str.to_re "\u{d}"))) (str.to_re "(") (re.* (re.union (str.to_re " ") (str.to_re "\u{9}") (str.to_re "\u{a}") (str.to_re "\u{c}") (str.to_re "\u{d}"))) (re.union (str.to_re "\u{22}") (str.to_re "'")) (re.+ (re.comp (str.to_re "("))) (str.to_re ".closeDoc") (re.* (re.union (str.to_re " ") (str.to_re "\u{9}") (str.to_re "\u{a}") (str.to_re "\u{c}") (str.to_re "\u{d}"))) (str.to_re "(") (re.* (re.comp (str.to_re ")"))) (str.to_re ")") (re.+ (re.comp (str.to_re "("))) (str.to_re ".openDoc") (re.* (re.union (str.to_re " ") (str.to_re "\u{9}") (str.to_re "\u{a}") (str.to_re "\u{c}") (str.to_re "\u{d}"))) (str.to_re "(") (re.* (re.comp (str.to_re ")"))) (str.to_re ")") (re.* (re.comp (str.to_re ")"))) (re.union (str.to_re "\u{22}") (str.to_re "'")) (re.* (re.union (str.to_re " ") (str.to_re "\u{9}") (str.to_re "\u{a}") (str.to_re "\u{c}") (str.to_re "\u{d}"))) (str.to_re ",") (re.* (re.union (str.to_re " ") (str.to_re "\u{9}") (str.to_re "\u{a}") (str.to_re "\u{c}") (str.to_re "\u{d}"))) (re.* (re.comp (str.to_re ")"))) (str.to_re ")/i\u{a}"))
      (re.++ (str.to_re "/.setTimeOus") (re.* (re.union (str.to_re " ") (str.to_re "\u{9}") (str.to_re "\u{a}") (str.to_re "\u{c}") (str.to_re "\u{d}"))) (str.to_re "(") (re.* (re.union (str.to_re " ") (str.to_re "\u{9}") (str.to_re "\u{a}") (str.to_re "\u{c}") (str.to_re "\u{d}"))) (re.union (str.to_re "\u{22}") (str.to_re "(")) (re.+ (re.comp (str.to_re "("))) (str.to_re ".closeDoc") (re.* (re.union (str.to_re " ") (str.to_re "\u{9}") (str.to_re "\u{a}") (str.to_re "\u{c}") (str.to_re "\u{d}"))) (str.to_re "(") (re.* (re.comp (str.to_re ")"))) (str.to_re ")") (re.+ (re.comp (str.to_re "("))) (str.to_re ".openDoc") (re.* (re.union (str.to_re " ") (str.to_re "\u{9}") (str.to_re "\u{a}") (str.to_re "\u{c}") (str.to_re "\u{d}"))) (str.to_re "'") (re.* (re.comp (str.to_re ")"))) (str.to_re ")") (re.* (re.comp (str.to_re ")"))) (re.union (str.to_re "\u{22}") (str.to_re "'")) (re.* (re.union (str.to_re " ") (str.to_re "\u{9}") (str.to_re "\u{a}") (str.to_re "\u{c}") (str.to_re "\u{d}"))) (str.to_re ",") (re.* (re.union (str.to_re " ") (str.to_re "\u{9}") (str.to_re "\u{a}") (str.to_re "\u{c}") (str.to_re "\u{d}"))) (re.* (re.comp (str.to_re ")"))) (str.to_re ")/i\u{a}")))))

(check-sat)
(exit)
